NAME : optical-integer.pruned_global_8.-15565948.tour
COMMENT : Length = -15565948
TYPE : TOUR
DIMENSION : 174
TOUR_SECTION
171
168
157
156
158
155
154
153
151
152
150
149
148
144
145
146
147
142
143
141
140
139
138
137
132
133
134
130
128
116
112
108
105
104
109
107
96
94
92
90
88
51
49
46
44
42
40
38
36
34
32
30
28
26
24
22
20
18
16
14
12
10
8
6
7
9
11
13
15
17
19
21
23
25
27
29
31
33
35
37
5
4
3
1
2
39
41
43
45
47
50
52
53
54
86
84
82
80
78
76
74
72
70
68
66
64
62
60
58
56
55
57
59
61
63
65
67
69
71
73
75
77
79
81
83
85
87
89
91
93
95
98
111
113
114
118
120
117
102
115
110
106
100
131
169
135
127
173
165
99
129
101
126
125
124
123
122
167
136
161
174
159
48
121
103
97
119
164
163
162
160
166
170
172
-1
EOF
